experiment/data/lkh-res/Vrp-Set-F-n135/Vrp-Set-F-n135-lkh/0.lkh1.vrp
NAME : 0
COMMENT : CVRP Instance
TYPE : CVRP
DIMENSION : 135
EDGE_WEIGHT_TYPE : EUC_2D
CAPACITY : 2210
NODE_COORD_SECTION
1	-599	1500
2	320	510
3	2460	830
4	2330	130
5	2780	830
6	2900	800
7	3100	800
8	3350	1050
9	3000	1050
10	2900	1000
11	2650	1170
12	2830	1430
13	2700	1430
14	2350	1900
15	2600	2000
16	2500	2000
17	2050	1900
18	-1999	1300
19	-2099	1400
20	-2999	3000
21	-499	3000
22	130	1780
23	180	1380
24	180	1310
25	200	1360
26	480	1700
27	700	1500
28	980	1660
29	1140	1450
30	1440	1130
31	1100	1200
32	930	1070
33	60	280
34	-2999	-999
35	200	0
36	1450	100
37	1500	180
38	1720	240
39	1720	420
40	1820	440
41	2030	210
42	2280	310
43	2300	400
44	2080	400
45	2080	400
46	1850	640
47	-1399	1600
48	-49	690
49	320	280
50	560	180
51	870	280
52	900	330
53	900	350
54	1120	330
55	1080	470
56	1150	460
57	1230	470
58	1230	550
59	1120	690
60	650	970
61	580	850
62	720	600
63	720	400
64	-399	-399
65	-299	120
66	-3999	4900
67	-1499	1000
68	-1099	-999
69	-2499	-1999
70	-2499	-3499
71	-2399	-3499
72	-1799	1000
73	-199	1000
74	-399	800
75	-299	500
76	210	620
77	-169	300
78	-299	200
79	-699	0
80	-299	-599
81	-2999	-1099
82	-6199	-999
83	-799	3000
84	100	6000
85	1000	5200
86	1000	5200
87	1000	5100
88	1600	2900
89	2600	2100
90	1600	2100
91	1550	1920
92	0	1650
93	1720	1430
94	1650	780
95	1690	770
96	1800	200
97	1620	400
98	1500	400
99	1500	300
100	1480	240
101	1450	300
102	1300	260
103	1180	300
104	1200	400
105	1280	360
106	1340	550
107	-14999	800
108	-15199	100
109	-15199	0
110	-14199	-3099
111	-7799	-1899
112	-7799	-1799
113	-7799	-1699
114	-7999	-1399
115	-11799	2200
116	-10699	3000
117	-8499	1400
118	-7799	1500
119	-1499	1600
120	-6199	3200
121	-11999	-1999
122	-8999	-2199
123	-7899	-1899
124	-7899	-1849
125	-7899	-1799
126	-7799	-1749
127	-7899	-1699
128	-7999	-1699
129	-7999	-1599
130	-7999	-1499
131	-4799	3700
132	-8499	1500
133	-6199	-899
134	-1499	-399
135	-99	320
DEMAND_SECTION
1	0
2	30
3	226
4	37
5	24
6	36
7	1
8	31
9	24
10	30
11	24
12	24
13	32
14	24
15	24
16	19
17	24
18	18
19	36
20	115
21	24
22	24
23	61
24	71
25	36
26	18
27	30
28	31
29	36
30	18
31	1004
32	18
33	34
34	504
35	18
36	39
37	24
38	37
39	24
40	99
41	24
42	24
43	36
44	30
45	25
46	24
47	122
48	196
49	229
50	83
51	18
52	24
53	306
54	18
55	20
56	18
57	24
58	22
59	24
60	18
61	18
62	24
63	24
64	30
65	24
66	40
67	166
68	254
69	187
70	94
71	17
72	285
73	24
74	24
75	205
76	23
77	28
78	51
79	49
80	19
81	262
82	120
83	266
84	704
85	38
86	18
87	30
88	25
89	12
90	18
91	25
92	35
93	18
94	12
95	20
96	1126
97	9
98	36
99	12
100	31
101	96
102	27
103	54
104	137
105	12
106	58
107	206
108	178
109	486
110	36
111	261
112	135
113	135
114	373
115	535
116	42
117	9
118	110
119	36
120	18
121	726
122	187
123	23
124	134
125	47
126	51
127	43
128	79
129	112
130	91
131	232
132	483
133	828
134	11
135	12
DEPOT_SECTION
1
-1
EOF
