experiment/data/lkh-res/Vrp-Set-F-n135/Vrp-Set-F-n135-lkh/0.lkh1.log
PARAMETER_FILE = baseline_results/cvrp_lkh/Vrp-Set-F-n135/Vrp-Set-F-n135-lkh/0.lkh1.par
Reading PROBLEM_FILE: "baseline_results/cvrp_lkh/Vrp-Set-F-n135/Vrp-Set-F-n135-lkh/0.lkh1.vrp" ... done
ASCENT_CANDIDATES = 50
BACKBONE_TRIALS = 0
BACKTRACKING = NO
# BWTSP =
# CANDIDATE_FILE =
CANDIDATE_SET_TYPE = ALPHA
# DISTANCE =
DEPOT = 1
# EDGE_FILE =
EXCESS = 0.00740741
EXTERNAL_SALESMEN = 0
EXTRA_CANDIDATES = 0 
EXTRA_CANDIDATE_SET_TYPE = QUADRANT
GAIN23 = NO
GAIN_CRITERION = YES
INITIAL_PERIOD = 100
INITIAL_STEP_SIZE = 1
INITIAL_TOUR_ALGORITHM = WALK
# INITIAL_TOUR_FILE = 
INITIAL_TOUR_FRACTION = 1.000
# INPUT_TOUR_FILE = 
KICK_TYPE = 4
KICKS = 1
# MAX_BREADTH =
MAKESPAN = NO
MAX_CANDIDATES = 5 
MAX_SWAPS = 0
MAX_TRIALS = 10000
# MERGE_TOUR_FILE =
MOVE_TYPE = 5 SPECIAL
MTSP_MIN_SIZE = 1
MTSP_MAX_SIZE = 134
# MTSP_SOLUTION_FILE = 
# NONSEQUENTIAL_MOVE_TYPE = 5
# OPTIMUM =
OUTPUT_TOUR_FILE = baseline_results/cvrp_lkh/Vrp-Set-F-n135/Vrp-Set-F-n135-lkh/0.lkh1.tour
PATCHING_A = 1 
PATCHING_C = 0 
# PI_FILE = 
POPMUSIC_INITIAL_TOUR = NO
POPMUSIC_MAX_NEIGHBORS = 5
POPMUSIC_SAMPLE_SIZE = 10
POPMUSIC_SOLUTIONS = 50
POPMUSIC_TRIALS = 1
POPULATION_SIZE = 10
PRECISION = 100
PROBLEM_FILE = baseline_results/cvrp_lkh/Vrp-Set-F-n135/Vrp-Set-F-n135-lkh/0.lkh1.vrp
RECOMBINATION = IPT
RESTRICTED_SEARCH = YES
RUNS = 1
SALESMEN = 7
SCALE = 1
SEED = 1234
# SINTEF_SOLUTION_FILE = 
STOP_AT_OPTIMUM = YES
SUBGRADIENT = YES
# SUBPROBLEM_SIZE =
# SUBPROBLEM_TOUR_FILE = 
SUBSEQUENT_MOVE_TYPE = 5 SPECIAL
SUBSEQUENT_PATCHING = YES
# TIME_LIMIT =
# TOTAL_TIME_LIMIT =
# TOUR_FILE = 
TRACE_LEVEL = 1
VEHICLES = 7

Lower bound = 78171.2, Ascent time = 0.04 sec.
Cand.min = 2, Cand.avg = 4.9, Cand.max = 5
Preprocessing time = 0.04 sec.
* 1: Cost = 0_122904, Time = 0.03 sec. 
Writing OUTPUT_TOUR_FILE: "baseline_results/cvrp_lkh/Vrp-Set-F-n135/Vrp-Set-F-n135-lkh/0.lkh1.tour" ... done
* 6: Cost = 0_122786, Time = 0.03 sec. 
Writing OUTPUT_TOUR_FILE: "baseline_results/cvrp_lkh/Vrp-Set-F-n135/Vrp-Set-F-n135-lkh/0.lkh1.tour" ... done
* 7: Cost = 0_122267, Time = 0.04 sec. 
Writing OUTPUT_TOUR_FILE: "baseline_results/cvrp_lkh/Vrp-Set-F-n135/Vrp-Set-F-n135-lkh/0.lkh1.tour" ... done
* 15: Cost = 0_122243, Time = 0.05 sec. 
Writing OUTPUT_TOUR_FILE: "baseline_results/cvrp_lkh/Vrp-Set-F-n135/Vrp-Set-F-n135-lkh/0.lkh1.tour" ... done
* 16: Cost = 0_122197, Time = 0.05 sec. 
Writing OUTPUT_TOUR_FILE: "baseline_results/cvrp_lkh/Vrp-Set-F-n135/Vrp-Set-F-n135-lkh/0.lkh1.tour" ... done
* 18: Cost = 0_122163, Time = 0.06 sec. 
Writing OUTPUT_TOUR_FILE: "baseline_results/cvrp_lkh/Vrp-Set-F-n135/Vrp-Set-F-n135-lkh/0.lkh1.tour" ... done
* 30: Cost = 0_122037, Time = 0.10 sec. 
Writing OUTPUT_TOUR_FILE: "baseline_results/cvrp_lkh/Vrp-Set-F-n135/Vrp-Set-F-n135-lkh/0.lkh1.tour" ... done
* 39: Cost = 0_121922, Time = 0.13 sec. 
Writing OUTPUT_TOUR_FILE: "baseline_results/cvrp_lkh/Vrp-Set-F-n135/Vrp-Set-F-n135-lkh/0.lkh1.tour" ... done
* 54: Cost = 0_121002, Time = 0.19 sec. 
Writing OUTPUT_TOUR_FILE: "baseline_results/cvrp_lkh/Vrp-Set-F-n135/Vrp-Set-F-n135-lkh/0.lkh1.tour" ... done
* 58: Cost = 0_120790, Time = 0.19 sec. 
Writing OUTPUT_TOUR_FILE: "baseline_results/cvrp_lkh/Vrp-Set-F-n135/Vrp-Set-F-n135-lkh/0.lkh1.tour" ... done
* 128: Cost = 0_119538, Time = 0.39 sec. 
Writing OUTPUT_TOUR_FILE: "baseline_results/cvrp_lkh/Vrp-Set-F-n135/Vrp-Set-F-n135-lkh/0.lkh1.tour" ... done
* 140: Cost = 0_116638, Time = 0.41 sec. 
Writing OUTPUT_TOUR_FILE: "baseline_results/cvrp_lkh/Vrp-Set-F-n135/Vrp-Set-F-n135-lkh/0.lkh1.tour" ... done
* 153: Cost = 0_116315, Time = 0.45 sec. 
Writing OUTPUT_TOUR_FILE: "baseline_results/cvrp_lkh/Vrp-Set-F-n135/Vrp-Set-F-n135-lkh/0.lkh1.tour" ... done
* 178: Cost = 0_116289, Time = 0.50 sec. 
Writing OUTPUT_TOUR_FILE: "baseline_results/cvrp_lkh/Vrp-Set-F-n135/Vrp-Set-F-n135-lkh/0.lkh1.tour" ... done
* 364: Cost = 0_116281, Time = 0.94 sec. 
Writing OUTPUT_TOUR_FILE: "baseline_results/cvrp_lkh/Vrp-Set-F-n135/Vrp-Set-F-n135-lkh/0.lkh1.tour" ... done
Population:
  1: 0_116281
Run 1: Cost = 0_116281, Time = 21.61 sec. 

Successes/Runs = 0/1 
Cost.min = 116281, Cost.avg = 116281.00, Cost.max = 116281
Gap.min = 0.0000%, Gap.avg = 0.0000%, Gap.max = 0.0000%
Penalty.min = 0, Penalty.avg = 0.00, Penalty.max = 0
Trials.min = 10000, Trials.avg = 10000.0, Trials.max = 10000
Time.min = 21.61 sec., Time.avg = 21.61 sec., Time.max = 21.61 sec.
Time.total = 21.65 sec.
  Size.min = 7, Size.max = 41, Penalty = 0
  Cost.min = 5561, Cost.max = 33533, Cost.sum = 116281
Best CVRP solution:
  Cost = 0_116281

