experiment/data/lkh-res/Vrp-Set-F-n135/Vrp-Set-F-n135-lkh/0.lkh1.tour
NAME : 0.116281.tour
COMMENT : Length = 116281
COMMENT : Found by LKH-3 [Keld Helsgaun] Tue Apr  9 01:54:48 2024
TYPE : TOUR
DIMENSION : 141
TOUR_SECTION
1
48
33
35
49
50
51
52
53
59
31
32
60
24
25
23
139
61
62
55
56
104
57
58
106
98
97
39
40
96
38
99
101
100
37
36
102
105
103
54
63
2
76
73
136
79
134
69
71
70
111
112
126
113
127
125
124
123
122
128
129
130
114
82
18
141
92
22
26
27
28
29
93
30
94
95
46
45
44
41
4
42
43
3
5
6
7
8
9
10
11
13
12
15
89
16
14
17
91
90
88
87
86
85
84
21
83
138
116
115
107
108
109
110
121
140
47
119
19
133
117
132
118
120
131
66
20
137
74
75
135
77
78
65
64
80
68
81
34
72
67
-1
EOF
